(set-logic HORN)
(declare-fun X1 (Int Int Int Int Int Int Int) Bool)
(declare-fun X2 (Int Int Int Int Int Int) Bool)
(declare-fun X3 (Int Int Int Int Int Int Int) Bool)
(declare-fun X10 (Int Int Int Int Int Int Int) Bool)
(declare-fun X51 (Int Int Int) Bool)
(declare-fun X52 (Int Int) Bool)
(declare-fun X53 (Int Int Int) Bool)
(declare-fun X60 (Int Int Int) Bool)
(declare-fun X61 (Int Int Int Int) Bool)
(declare-fun X84 () Bool)
(declare-fun X85 (Int) Bool)
(declare-fun X86 (Int Int) Bool)
(declare-fun X98 (Int Int) Bool)
(declare-fun X99 (Int Int Int Int) Bool)
(declare-fun X100 (Int Int Int Int Int Int Int) Bool)
(declare-fun X101 (Int Int Int Int Int Int) Bool)
(declare-fun X102 (Int Int Int Int Int Int Int) Bool)
(declare-fun X103 (Int Int Int Int Int Int Int) Bool)
(assert (forall ((x85 Int)(x86 Int)(x87 Int)(x88 Int)(x89 Int)(x90 Int)) (=> (and (X2  x90 x89 x88 x87 x86 x85) (<=  x85 0)) false)))
(assert (forall ((x85 Int)(x86 Int)(x87 Int)(x88 Int)(x89 Int)(x90 Int)) (=> (and (X2  x90 x89 x88 x87 x86 x85) (<=  x90 0)) (X101  x90 x89 x88 x87 x86 x85))))
(assert (forall ((m20 Int)(x85 Int)(x86 Int)(x87 Int)(x88 Int)(x89 Int)(x90 Int)) (=> (and (X2  x90 x89 x88 x87 x86 x85) (>  x90 0)) (X10  m20 x90 x89 x88 x87 x86 x85))))
(assert (forall ((x85 Int)(x86 Int)(x87 Int)(x88 Int)(x89 Int)(x90 Int)(x91 Int)) (=> (and (X2  x90 x89 x88 x87 x86 x85) (X3  x91 x90 x89 x88 x87 x86 x85)) (X1  x91 x90 x89 x88 x87 x86 x85))))
(assert (forall ((l14 Int)(m20 Int)(r15 Int)(recPar12311 Int)(recQs12212 Int)(x13 Int)(xs16 Int)) (=> (and (X10  m20 xs16 r15 l14 x13 recQs12212 recPar12311) (>=  m20 x13)) (X102  m20 xs16 r15 l14 x13 recQs12212 recPar12311))))
(assert (forall ((l14 Int)(m20 Int)(r15 Int)(recPar12311 Int)(recQs12212 Int)(x13 Int)(xs16 Int)) (=> (and (X10  m20 xs16 r15 l14 x13 recQs12212 recPar12311) (<  m20 x13)) (X103  m20 xs16 r15 l14 x13 recQs12212 recPar12311))))
(assert (forall ((l14 Int)(m20 Int)(r15 Int)(recPar12311 Int)(recQs12212 Int)(tmp92 Int)(tmp93 Int)(tmp94 Int)(x13 Int)(xs16 Int)) (=> (and (and (and (=  tmp92 (-  xs16 1)) (=  tmp93 (+  1 r15))) (=  tmp94 (-  recPar12311 1))) (X103  m20 xs16 r15 l14 x13 recQs12212 recPar12311)) (X2  tmp92 tmp93 l14 x13 recQs12212 tmp94))))
(assert (forall ((l14 Int)(m20 Int)(r15 Int)(recPar12311 Int)(recQs12212 Int)(x13 Int)(x84 Int)(xs16 Int)) (=> (and (X103  m20 xs16 r15 l14 x13 recQs12212 recPar12311) (X1  x84 (-  xs16 1) (+  1 r15) l14 x13 recQs12212 (-  recPar12311 1))) (X3  x84 xs16 r15 l14 x13 recQs12212 recPar12311))))
(assert (forall ((l14 Int)(m20 Int)(r15 Int)(recPar12311 Int)(recQs12212 Int)(tmp95 Int)(tmp96 Int)(tmp97 Int)(x13 Int)(xs16 Int)) (=> (and (and (and (=  tmp95 (-  xs16 1)) (=  tmp96 (+  1 l14))) (=  tmp97 (-  recPar12311 1))) (X102  m20 xs16 r15 l14 x13 recQs12212 recPar12311)) (X2  tmp95 r15 tmp96 x13 recQs12212 tmp97))))
(assert (forall ((l14 Int)(m20 Int)(r15 Int)(recPar12311 Int)(recQs12212 Int)(x13 Int)(x83 Int)(xs16 Int)) (=> (and (X102  m20 xs16 r15 l14 x13 recQs12212 recPar12311) (X1  x83 (-  xs16 1) r15 (+  1 l14) x13 recQs12212 (-  recPar12311 1))) (X3  x83 xs16 r15 l14 x13 recQs12212 recPar12311))))
(assert (forall ((l14 Int)(r15 Int)(recPar12311 Int)(recQs12212 Int)(tmp98 Int)(x13 Int)(xs16 Int)) (=> (and (=  tmp98 (-  recQs12212 1)) (X101  xs16 r15 l14 x13 recQs12212 recPar12311)) (X52  l14 tmp98))))
(assert (forall ((l14 Int)(r15 Int)(recPar12311 Int)(recQs12212 Int)(x13 Int)(x82 Int)(xs16 Int)) (=> (and (X101  xs16 r15 l14 x13 recQs12212 recPar12311) (X51  x82 l14 (-  recQs12212 1))) (X100  x82 xs16 r15 l14 x13 recQs12212 recPar12311))))
(assert (forall ((l14 Int)(r15 Int)(r_ap_18 Int)(recPar12311 Int)(recQs12212 Int)(tmp99 Int)(x13 Int)(xs16 Int)) (=> (and (=  tmp99 (-  recQs12212 1)) (X100  r_ap_18 xs16 r15 l14 x13 recQs12212 recPar12311)) (X52  r15 tmp99))))
(assert (forall ((l14 Int)(r15 Int)(r_ap_18 Int)(recPar12311 Int)(recQs12212 Int)(tmp100 Int)(x13 Int)(x81 Int)(xs16 Int)) (=> (and (=  tmp100 (+  (+  r_ap_18 1) x81)) (and (X100  r_ap_18 xs16 r15 l14 x13 recQs12212 recPar12311) (X51  x81 r15 (-  recQs12212 1)))) (X3  tmp100 xs16 r15 l14 x13 recQs12212 recPar12311))))
(assert (forall ((x78 Int)(x79 Int)) (=> (and (X52  x79 x78) (<=  x78 0)) false)))
(assert (forall ((tmp101 Int)(x78 Int)(x79 Int)) (=> (and (=  tmp101 0) (and (X52  x79 x78) (<=  x79 0))) (X53  tmp101 x79 x78))))
(assert (forall ((m9 Int)(x78 Int)(x79 Int)) (=> (and (X52  x79 x78) (>  x79 0)) (X60  m9 x79 x78))))
(assert (forall ((x78 Int)(x79 Int)(x80 Int)) (=> (and (X52  x79 x78) (X53  x80 x79 x78)) (X51  x80 x79 x78))))
(assert (forall ((m9 Int)(n7 Int)(r16 Int)(recPar12310 Int)) (=> (X60  m9 n7 r16) (X61  recPar12310 m9 n7 r16))))
(assert (forall ((m9 Int)(n7 Int)(r16 Int)(recPar12310 Int)) (=> (and (X61  recPar12310 m9 n7 r16) (and (and (and (>=  recPar12310 1) (>=  recPar12310 (+  1 (*  (-  0 1) m9)))) (>=  recPar12310 (+  1 (*  1 m9)))) (>=  recPar12310 (+  1 (*  1 (-  n7 1)))))) (X99  recPar12310 m9 n7 r16))))
(assert (forall ((m9 Int)(n7 Int)(r16 Int)(recPar12310 Int)(tmp102 Int)(tmp103 Int)(tmp104 Int)) (=> (and (and (and (=  tmp102 (-  n7 1)) (=  tmp103 0)) (=  tmp104 0)) (X99  recPar12310 m9 n7 r16)) (X2  tmp102 tmp103 tmp104 m9 r16 recPar12310))))
(assert (forall ((m9 Int)(n7 Int)(r16 Int)(recPar12310 Int)(x77 Int)) (=> (and (X99  recPar12310 m9 n7 r16) (X1  x77 (-  n7 1) 0 0 m9 r16 recPar12310)) (X53  x77 n7 r16))))
(assert (forall ((n3 Int)) (=> X84 (X85  n3))))
(assert (forall ((n3 Int)(r14 Int)) (=> (X85  n3) (X86  r14 n3))))
(assert (forall ((n3 Int)(r14 Int)) (=> (and (X86  r14 n3) (and (and (>=  r14 1) (>=  r14 (+  1 (*  (-  0 1) n3)))) (>=  r14 (+  1 (*  1 n3))))) (X98  r14 n3))))
(assert (forall ((n3 Int)(r14 Int)) (=> (X98  r14 n3) (X52  n3 r14))))
(assert (forall () (=> false false)))
(assert (forall () (=> true X84)))
(check-sat)
    (get-model)
    